c Created with the Wolfram Language : www.wolfram.com
c 
p edge 100 501
e 1 2
e 4 10
e 3 11
e 3 12
e 10 12
e 10 14
e 13 14
e 14 15
e 6 16
e 8 16
e 14 17
e 3 18
e 7 18
e 15 18
e 2 19
e 7 19
e 11 19
e 4 20
e 10 20
e 2 21
e 3 21
e 13 21
e 14 21
e 16 21
e 3 22
e 21 23
e 4 24
e 3 25
e 19 25
e 20 25
e 3 26
e 6 26
e 9 26
e 14 27
e 19 27
e 22 27
e 17 28
e 18 28
e 19 28
e 22 28
e 9 29
e 12 29
e 19 29
e 20 29
e 21 29
e 3 30
e 4 30
e 11 30
e 16 30
e 7 31
e 12 31
e 21 31
e 27 31
e 10 32
e 14 32
e 19 32
e 20 32
e 27 32
e 4 33
e 22 33
e 27 33
e 10 34
e 26 34
e 5 35
e 29 35
e 34 35
e 9 36
e 22 36
e 6 37
e 16 37
e 24 37
e 33 37
e 6 38
e 9 38
e 37 38
e 5 39
e 6 39
e 6 40
e 7 40
e 8 40
e 9 40
e 12 40
e 19 40
e 36 40
e 8 41
e 22 41
e 33 41
e 12 42
e 13 42
e 25 42
e 31 42
e 3 43
e 6 43
e 35 43
e 39 43
e 1 44
e 23 44
e 25 44
e 27 44
e 34 44
e 14 45
e 16 45
e 23 45
e 26 45
e 28 45
e 37 45
e 40 45
e 42 45
e 43 45
e 16 46
e 20 46
e 29 46
e 4 47
e 21 47
e 3 48
e 14 48
e 15 48
e 20 48
e 9 49
e 17 49
e 37 49
e 43 49
e 4 50
e 8 50
e 15 50
e 48 50
e 4 51
e 10 51
e 15 52
e 35 52
e 3 53
e 32 53
e 41 53
e 52 53
e 9 54
e 10 54
e 17 54
e 20 54
e 24 54
e 51 54
e 4 55
e 8 55
e 22 55
e 27 55
e 44 55
e 47 55
e 23 56
e 29 56
e 38 56
e 6 57
e 13 57
e 18 57
e 23 57
e 43 57
e 54 57
e 55 57
e 2 58
e 7 58
e 17 58
e 21 58
e 35 58
e 8 59
e 12 59
e 18 59
e 35 59
e 37 59
e 47 59
e 9 60
e 16 60
e 27 60
e 56 60
e 58 60
e 7 61
e 19 61
e 32 61
e 37 61
e 45 61
e 6 62
e 13 62
e 19 62
e 26 62
e 40 62
e 46 62
e 2 63
e 13 63
e 37 63
e 39 63
e 53 63
e 3 64
e 13 64
e 27 64
e 39 64
e 40 64
e 57 64
e 61 64
e 8 65
e 11 65
e 18 65
e 21 65
e 36 65
e 39 65
e 42 65
e 45 65
e 47 65
e 55 65
e 6 66
e 13 66
e 16 66
e 22 66
e 27 66
e 29 66
e 31 66
e 38 66
e 52 66
e 53 66
e 60 66
e 62 66
e 64 66
e 2 67
e 11 67
e 12 67
e 17 67
e 18 67
e 20 67
e 24 67
e 29 67
e 30 67
e 32 67
e 46 67
e 52 67
e 57 67
e 59 67
e 65 67
e 3 68
e 14 68
e 19 68
e 32 68
e 33 68
e 37 68
e 38 68
e 56 68
e 5 69
e 28 69
e 36 69
e 37 69
e 56 69
e 64 69
e 26 70
e 38 70
e 47 70
e 59 70
e 61 70
e 20 71
e 23 71
e 29 71
e 50 71
e 68 71
e 3 72
e 10 72
e 11 72
e 12 72
e 41 72
e 49 72
e 3 73
e 4 73
e 16 73
e 28 73
e 32 73
e 34 73
e 52 73
e 57 73
e 65 73
e 71 73
e 2 74
e 8 74
e 11 74
e 56 74
e 61 74
e 3 75
e 13 75
e 17 75
e 26 75
e 30 75
e 34 75
e 40 75
e 43 75
e 21 76
e 24 76
e 26 76
e 33 76
e 52 76
e 56 76
e 67 76
e 71 76
e 4 77
e 13 77
e 16 77
e 48 77
e 53 77
e 76 77
e 15 78
e 21 78
e 43 78
e 49 78
e 61 78
e 11 79
e 28 79
e 34 79
e 44 79
e 49 79
e 62 79
e 66 79
e 7 80
e 10 80
e 19 80
e 21 80
e 24 80
e 45 80
e 60 80
e 61 80
e 62 80
e 64 80
e 71 80
e 76 80
e 77 80
e 5 81
e 16 81
e 19 81
e 31 81
e 51 81
e 56 81
e 71 81
e 17 82
e 23 82
e 26 82
e 34 82
e 35 82
e 36 82
e 45 82
e 65 82
e 29 83
e 40 83
e 57 83
e 75 83
e 5 84
e 36 84
e 40 84
e 44 84
e 52 84
e 71 84
e 75 84
e 79 84
e 37 85
e 43 85
e 46 85
e 50 85
e 54 85
e 55 85
e 12 86
e 16 86
e 19 86
e 32 86
e 33 86
e 38 86
e 56 86
e 75 86
e 85 86
e 1 87
e 11 87
e 14 87
e 21 87
e 31 87
e 38 87
e 46 87
e 52 87
e 60 87
e 61 87
e 75 87
e 12 88
e 28 88
e 39 88
e 40 88
e 48 88
e 56 88
e 61 88
e 66 88
e 70 88
e 71 88
e 79 88
e 82 88
e 3 89
e 17 89
e 29 89
e 32 89
e 34 89
e 35 89
e 37 89
e 44 89
e 50 89
e 59 89
e 60 89
e 71 89
e 2 90
e 7 90
e 11 90
e 12 90
e 18 90
e 20 90
e 25 90
e 34 90
e 38 90
e 64 90
e 87 90
e 4 91
e 5 91
e 46 91
e 55 91
e 86 91
e 88 91
e 3 92
e 14 92
e 31 92
e 45 92
e 48 92
e 52 92
e 1 93
e 2 93
e 12 93
e 13 93
e 26 93
e 39 93
e 50 93
e 52 93
e 64 93
e 88 93
e 3 94
e 4 94
e 11 94
e 18 94
e 29 94
e 68 94
e 2 95
e 11 95
e 23 95
e 44 95
e 61 95
e 65 95
e 77 95
e 82 95
e 93 95
e 5 96
e 9 96
e 15 96
e 28 96
e 44 96
e 57 96
e 58 96
e 61 96
e 64 96
e 65 96
e 68 96
e 70 96
e 72 96
e 86 96
e 92 96
e 10 97
e 14 97
e 16 97
e 47 97
e 51 97
e 80 97
e 85 97
e 16 98
e 24 98
e 25 98
e 39 98
e 59 98
e 70 98
e 73 98
e 77 98
e 81 98
e 84 98
e 4 99
e 35 99
e 51 99
e 57 99
e 58 99
e 66 99
e 68 99
e 76 99
e 85 99
e 98 99
e 9 100
e 14 100
e 21 100
e 59 100
e 64 100
e 82 100
e 84 100
e 88 100
e 92 100
